20
1 0 120
4 1 73
6 2 89
8 0 32
8 1 119
9 1 132
10 7 78
11 0 4
11 7 105
11 8 42
11 9 94
11 10 18
12 0 58
12 11 37
13 1 39
13 7 141
13 11 49
14 1 146
14 5 19
14 6 126
14 8 50
15 6 29
15 10 31
15 13 159
16 1 37
16 7 146
17 3 15
17 7 38
17 11 15
17 15 27
17 16 143
19 1 140
19 2 154
19 4 105
19 7 128
19 10 15
19 14 32
